150724
0,57,75,23,101,73,13,60,102,34,52,83,38,36,48,17,6,31,62,74,50,81,71,32,1,72,47,84,35,53,70,66,40,10,103,94,37,104,100,2,77,93,69,95,59,90,78,42,14,3,46,49,67,98,80,99,44,24,61,21,20,76,85,45,5,68,39,16,89,63,15,55,19,87,12,51,64,30,97,41,18,8,25,33,82,56,79,22,91,7,105,96,54,4,29,28,11,92,88,27,26,9,58,65,43,86,0